
Gurobi 6.5.2 (linux64) logging started Mon Aug 29 10:57:52 2016

Optimize a model with 41 rows, 115 columns and 273 nonzeros
Coefficient statistics:
  Matrix range    [1e+00, 2e+00]
  Objective range [4e+00, 1e+02]
  Bounds range    [1e+00, 1e+00]
  RHS range       [1e+00, 1e+00]
Found heuristic solution: objective 1227
Presolve removed 17 rows and 5 columns
Presolve time: 0.00s
Presolved: 24 rows, 110 columns, 219 nonzeros
Variable types: 0 continuous, 110 integer (110 binary)

Root relaxation: objective 4.855000e+02, 21 iterations, 0.00 seconds

    Nodes    |    Current Node    |     Objective Bounds      |     Work
 Expl Unexpl |  Obj  Depth IntInf | Incumbent    BestBd   Gap | It/Node Time

     0     0  485.50000    0    4 1227.00000  485.50000  60.4%     -    0s
H    0     0                     664.0000000  485.50000  26.9%     -    0s
H    0     0                     525.0000000  485.50000  7.52%     -    0s
     0     0     cutoff    0       525.00000  524.00053  0.19%     -    0s

Cutting planes:
  Gomory: 4
  Cover: 2
  Clique: 1

Explored 0 nodes (28 simplex iterations) in 0.00 seconds
Thread count was 8 (of 8 available processors)

Optimal solution found (tolerance 1.00e-04)
Best objective 5.250000000000e+02, best bound 5.250000000000e+02, gap 0.0%
